Minimize
  - 6 y_0 - 24 y_1 - 18 y_2 - 24 y_3 - 7 y_4 - 15 y_5 - 24 y_6 - 8 y_7
   - 22 y_8 - 24 y_9 - 22 y_10 - 23 y_11 - 33 y_12 - 35 y_13 - 22 y_15
   - 23 y_16 - 10 y_17 - 28 y_18 - 29 y_19 - 11 y_20 - 12 y_21 - 27 y_22
   - 17 y_23 - 12 y_24 - 27 y_25 - 20 y_26 - 29 y_27 - 16 y_28 - 24 y_29
   - 23 y_30 - 24 y_31 - 19 y_32 - 26 y_33 - 15 y_34 - 26 y_35 - 16 y_36
   - 20 y_37 - 25 y_38 - 10 y_39 - 31 y_40 - 5 y_41 - 26 y_42 - 13 y_43
   - 11 y_44 - 23 y_45 - 25 y_46 - 20 y_47 - 14 y_48 - 19 y_49
   + 983 Constant
Subject To
 c_0: y_0 = 1
 c_1_0: y_0 + y_4 + y_7 + y_14 + y_17 + y_20 + y_41 >= 1
 c_1_1: y_1 + y_9 + y_26 + y_30 + y_35 + y_38 + y_45 + y_49 >= 1
 c_1_2: y_2 + y_16 + y_28 + y_37 + y_48 >= 1
 c_1_3: y_3 + y_6 + y_23 + y_33 + y_37 + y_42 >= 1
 c_1_4: y_0 + y_4 + y_7 + y_14 + y_23 + y_28 + y_41 + y_43 + y_48 >= 1
 c_1_5: y_5 + y_21 + y_32 + y_47 >= 1
 c_1_6: y_3 + y_6 + y_16 + y_23 + y_28 + y_33 + y_37 + y_42 >= 1
 c_1_7: y_0 + y_4 + y_7 + y_14 + y_23 + y_28 + y_41 + y_43 + y_48 >= 1
 c_1_8: y_8 + y_10 + y_22 + y_29 + y_31 + y_32 + y_34 + y_40 + y_47 >= 1
 c_1_9: y_1 + y_9 + y_26 + y_35 + y_36 + y_45 + y_49 >= 1
 c_1_10: y_8 + y_10 + y_19 + y_22 + y_25 + y_29 + y_31 + y_32 + y_34 + y_47
   >= 1
 c_1_11: y_11 >= 1
 c_1_12: y_12 + y_19 + y_22 + y_31 + y_40 >= 1
 c_1_13: y_13 + y_18 >= 1
 c_1_14: y_0 + y_4 + y_7 + y_14 + y_17 + y_41 >= 1
 c_1_15: y_15 + y_46 >= 1
 c_1_16: y_2 + y_6 + y_16 + y_28 + y_33 + y_37 + y_42 + y_48 >= 1
 c_1_17: y_0 + y_14 + y_17 + y_20 + y_39 >= 1
 c_1_18: y_13 + y_18 + y_30 + y_38 >= 1
 c_1_19: y_10 + y_12 + y_19 + y_25 + y_31 >= 1
 c_1_20: y_0 + y_17 + y_20 + y_39 >= 1
 c_1_21: y_5 + y_21 + y_24 + y_32 + y_47 >= 1
 c_1_22: y_8 + y_10 + y_12 + y_22 + y_29 + y_31 + y_32 + y_40 + y_47 >= 1
 c_1_23: y_3 + y_4 + y_6 + y_7 + y_23 + y_28 + y_37 + y_42 + y_43 + y_48
   >= 1
 c_1_24: y_21 + y_24 + y_26 + y_36 + y_39 + y_44 + y_49 >= 1
 c_1_25: y_10 + y_19 + y_25 + y_31 >= 1
 c_1_26: y_1 + y_9 + y_24 + y_26 + y_35 + y_36 + y_38 + y_44 + y_45 + y_49
   >= 1
 c_1_27: y_27 >= 1
 c_1_28: y_2 + y_4 + y_6 + y_7 + y_16 + y_23 + y_28 + y_33 + y_37 + y_42
   + y_48 >= 1
 c_1_29: y_8 + y_10 + y_22 + y_29 + y_31 + y_32 + y_40 + y_47 >= 1
 c_1_30: y_1 + y_18 + y_30 + y_38 >= 1
 c_1_31: y_8 + y_10 + y_12 + y_19 + y_22 + y_25 + y_29 + y_31 + y_32 + y_34
   + y_47 >= 1
 c_1_32: y_5 + y_8 + y_10 + y_21 + y_22 + y_29 + y_31 + y_32 + y_34 + y_47
   >= 1
 c_1_33: y_3 + y_6 + y_16 + y_28 + y_33 + y_37 + y_42 >= 1
 c_1_34: y_8 + y_10 + y_31 + y_32 + y_34 + y_47 >= 1
 c_1_35: y_1 + y_9 + y_26 + y_35 + y_38 + y_45 + y_49 >= 1
 c_1_36: y_9 + y_24 + y_26 + y_36 + y_39 + y_44 + y_45 + y_49 >= 1
 c_1_37: y_2 + y_3 + y_6 + y_16 + y_23 + y_28 + y_33 + y_37 + y_42 + y_48
   >= 1
 c_1_38: y_1 + y_18 + y_26 + y_30 + y_35 + y_38 + y_45 >= 1
 c_1_39: y_17 + y_20 + y_24 + y_36 + y_39 + y_44 + y_49 >= 1
 c_1_40: y_8 + y_12 + y_22 + y_29 + y_40 >= 1
 c_1_41: y_0 + y_4 + y_7 + y_14 + y_41 + y_43 >= 1
 c_1_42: y_3 + y_6 + y_16 + y_23 + y_28 + y_33 + y_37 + y_42 >= 1
 c_1_43: y_4 + y_7 + y_23 + y_41 + y_43 + y_48 >= 1
 c_1_44: y_24 + y_26 + y_36 + y_39 + y_44 + y_49 >= 1
 c_1_45: y_1 + y_9 + y_26 + y_35 + y_36 + y_38 + y_45 + y_49 >= 1
 c_1_46: y_15 + y_46 >= 1
 c_1_47: y_5 + y_8 + y_10 + y_21 + y_22 + y_29 + y_31 + y_32 + y_34 + y_47
   >= 1
 c_1_48: y_2 + y_4 + y_7 + y_16 + y_23 + y_28 + y_37 + y_43 + y_48 >= 1
 c_1_49: y_1 + y_9 + y_24 + y_26 + y_35 + y_36 + y_39 + y_44 + y_45 + y_49
   >= 1
Bounds
 Constant = 1
Binaries
 y_0 y_1 y_2 y_3 y_4 y_5 y_6 y_7 y_8 y_9 y_10 y_11 y_12 y_13 y_14 y_15 y_16
 y_17 y_18 y_19 y_20 y_21 y_22 y_23 y_24 y_25 y_26 y_27 y_28 y_29 y_30 y_31
 y_32 y_33 y_34 y_35 y_36 y_37 y_38 y_39 y_40 y_41 y_42 y_43 y_44 y_45 y_46
 y_47 y_48 y_49
End
